solution status: optimal solution found
objective value:                                    0
shell_i_$_203__7                                    1 	(obj:0)
shell_i_one.thingy.devices[3].thingy.vs2                    1 	(obj:0)
shell_i_$_195__7                                    1 	(obj:0)
shell_i_$_211__7                                    1 	(obj:0)
shell_j_$_164__7                                    1 	(obj:0)
shell_i_one.thingy.devices[1].thingy.vp2                    1 	(obj:0)
shell_i_$_255__7                                    1 	(obj:0)
shell_i_one.thingy.devices[0].thingy.vs2                    1 	(obj:0)
shell_i_one.ctrl_a[9].flush                         1 	(obj:0)
shell_j_$_183__7                                    1 	(obj:0)
shell_i_one.thingy.devices[3].thingy.v6                    1 	(obj:0)
shell_j_$_213__7                                    1 	(obj:0)
shell_i_one.ctrl_a[10].flush                        1 	(obj:0)
shell_i_one.ctrl_a[4].flush                         1 	(obj:0)
shell_i_one.thingy.devices[2].thingy.vs2                    1 	(obj:0)
shell_i_one.thingy.devices[1].thingy.v5                    1 	(obj:0)
shell_i_$_240__7                                    1 	(obj:0)
shell_i_one.ctrl_a[7].flush                         1 	(obj:0)
shell_i_$_214__7                                    1 	(obj:0)
shell_j_$_30__7                                     1 	(obj:0)
shell_i_one.thingy.devices[2].thingy.v6                    1 	(obj:0)
shell_j_$_38__7                                     1 	(obj:0)
shell_i_$_202__7                                    1 	(obj:0)
shell_i_$_55__7                                     1 	(obj:0)
shell_i_$_161__7                                    1 	(obj:0)
shell_i_$_246__7                                    1 	(obj:0)
shell_j_$_60__7                                     1 	(obj:0)
shell_i_one.thingy.devices[1].thingy.vs2                    1 	(obj:0)
shell_i_$_63__7                                     1 	(obj:0)
shell_i_$_236__7                                    1 	(obj:0)
shell_i_one.ctrl_a[10].hole                         1 	(obj:0)
shell_i_$_170__7                                    1 	(obj:0)
shell_j_$_156__7                                    1 	(obj:0)
shell_j_$_245__7                                    1 	(obj:0)
shell_i_$_173__7                                    1 	(obj:0)
shell_i_one.thingy.devices[1].thingy.vs3                    1 	(obj:0)
shell_i_$_197__7                                    1 	(obj:0)
shell_i_$_32__7                                     1 	(obj:0)
shell_j_one.thingy.devices[3].thingy.column_lower                    1 	(obj:0)
shell_i_one.thingy.devices[3].thingy.vs3                    1 	(obj:0)
shell_i_$_244__7                                    1 	(obj:0)
shell_j_$_41__7                                     1 	(obj:0)
shell_i_one.ctrl_a[7].hole                          1 	(obj:0)
shell_j_$_33__7                                     1 	(obj:0)
shell_i_$_224__7                                    1 	(obj:0)
shell_i_one.thingy.devices[0].thingy.v6                    1 	(obj:0)
shell_i_$_265__7                                    1 	(obj:0)
shell_j_$_172__7                                    1 	(obj:0)
shell_j_$_162__7                                    1 	(obj:0)
shell_i_one.thingy.devices[2].thingy.vp2                    1 	(obj:0)
shell_j_$_205__7                                    1 	(obj:0)
shell_i_$_199__7                                    1 	(obj:0)
shell_i_$_254__7                                    1 	(obj:0)
shell_j_$_252__7                                    1 	(obj:0)
shell_i_one.thingy.devices[3].thingy.vp2                    1 	(obj:0)
shell_j_$_42__7                                     1 	(obj:0)
shell_j_one.ctrl_s[0].hole                          1 	(obj:0)
shell_j_$_158__7                                    1 	(obj:0)
shell_i_one.thingy.devices[0].thingy.v5                    1 	(obj:0)
shell_i_$_165__7                                    1 	(obj:0)
shell_j_one.thingy.devices[1].thingy.column_lower                    1 	(obj:0)
shell_i_one.thingy.devices[2].thingy.v5                    1 	(obj:0)
shell_j_$_163__7                                    1 	(obj:0)
shell_i_one.thingy.devices[1].thingy.v6                    1 	(obj:0)
shell_j_one.thingy.devices[0].thingy.vs3                    1 	(obj:0)
shell_j_one.thingy.devices[2].thingy.column_lower                    1 	(obj:0)
shell_j_$_52__7                                     1 	(obj:0)
shell_j_$_53__7                                     1 	(obj:0)
shell_i_one.ctrl_a[9].hole                          1 	(obj:0)
shell_j_$_204__7                                    1 	(obj:0)
shell_i_one.thingy.devices[0].thingy.vp2                    1 	(obj:0)
shell_i_$_54__7                                     1 	(obj:0)
shell_i_one.ctrl_s[0].flush                         1 	(obj:0)
shell_i_$_238__7                                    1 	(obj:0)
shell_i_$_64__7                                     1 	(obj:0)
shell_i_$_243__7                                    1 	(obj:0)
shell_j_one.thingy.devices[2].thingy.vs3                    1 	(obj:0)
shell_i_one.ctrl_a[4].hole                          1 	(obj:0)
shell_j_$_154__7                                    1 	(obj:0)
shell_i_one.thingy.devices[3].thingy.v5                    1 	(obj:0)
shell_i_$_206__7                                    1 	(obj:0)
shell_i_$_247__7                                    1 	(obj:0)
shell_j_one.thingy.devices[0].thingy.column_lower                    1 	(obj:0)
shell_j_$_31__7                                     1 	(obj:0)
one.ctrl_a[4].flush_y                              -5 	(obj:0)
one.ctrl_a[4].flush_z                              -8 	(obj:0)
$_173__7_x                                         -9 	(obj:0)
$_173__7_y                                          6 	(obj:0)
$_173__7_z                                         11 	(obj:0)
one.thingy.devices[1].thingy.vp2_y                    1 	(obj:0)
one.thingy.devices[1].thingy.vp2_z                    1 	(obj:0)
one.thingy.devices[1].thingy.vs3_x                   -9 	(obj:0)
one.thingy.devices[1].thingy.vs3_y                    6 	(obj:0)
one.thingy.devices[1].thingy.vs3_z                    5 	(obj:0)
one.thingy.devices[2].thingy.vs2_x                   -9 	(obj:0)
one.thingy.devices[2].thingy.vs2_y                    6 	(obj:0)
$_197__7_x                                         -9 	(obj:0)
$_197__7_y                                         -9 	(obj:0)
$_197__7_z                                         -2 	(obj:0)
one.thingy.devices[2].thingy.vs2_z                    3 	(obj:0)
$_195__7_x                                         -9 	(obj:0)
$_32__7_x                                          -9 	(obj:0)
$_32__7_y                                          -9 	(obj:0)
$_32__7_z                                           4 	(obj:0)
$_195__7_y                                          7 	(obj:0)
one.thingy.devices[1].thingy.v5_x                   -9 	(obj:0)
one.thingy.devices[3].thingy.column_lower_x                   -5 	(obj:0)
one.thingy.devices[3].thingy.column_lower_y                    9 	(obj:0)
one.thingy.devices[3].thingy.column_lower_z                   -7 	(obj:0)
one.thingy.devices[1].thingy.v5_y                   -1 	(obj:0)
one.thingy.devices[1].thingy.v5_z                   -5 	(obj:0)
one.thingy.devices[3].thingy.vs3_x                   -9 	(obj:0)
one.thingy.devices[3].thingy.vs3_y                    9 	(obj:0)
one.thingy.devices[3].thingy.vs3_z                   -3 	(obj:0)
$_255__7_x                                         -9 	(obj:0)
$_255__7_y                                          9 	(obj:0)
$_244__7_x                                         -9 	(obj:0)
$_244__7_y                                          9 	(obj:0)
$_244__7_z                                         -1 	(obj:0)
$_240__7_x                                         -9 	(obj:0)
$_240__7_y                                          6 	(obj:0)
$_41__7_x                                          -4 	(obj:0)
$_41__7_y                                           9 	(obj:0)
$_41__7_z                                           3 	(obj:0)
$_240__7_z                                          1 	(obj:0)
$_255__7_z                                          3 	(obj:0)
one.ctrl_a[7].hole_x                               -9 	(obj:0)
one.ctrl_a[7].hole_y                                1 	(obj:0)
one.ctrl_a[7].hole_z                                4 	(obj:0)
$_195__7_z                                          2 	(obj:0)
one.ctrl_a[7].flush_x                              -9 	(obj:0)
$_33__7_x                                          -9 	(obj:0)
$_33__7_y                                          -9 	(obj:0)
$_33__7_z                                           7 	(obj:0)
one.ctrl_a[7].flush_y                               9 	(obj:0)
one.ctrl_a[7].flush_z                              -4 	(obj:0)
$_224__7_x                                         -9 	(obj:0)
$_224__7_y                                          8 	(obj:0)
$_224__7_z                                         -3 	(obj:0)
$_203__7_y                                          9 	(obj:0)
one.thingy.devices[0].thingy.vs2_x                   -9 	(obj:0)
one.thingy.devices[0].thingy.v6_x                   -9 	(obj:0)
one.thingy.devices[0].thingy.v6_y                   -1 	(obj:0)
one.thingy.devices[0].thingy.v6_z                    3 	(obj:0)
$_214__7_x                                         -9 	(obj:0)
$_214__7_y                                          9 	(obj:0)
$_265__7_x                                         -9 	(obj:0)
$_265__7_y                                          9 	(obj:0)
$_265__7_z                                         -5 	(obj:0)
$_214__7_z                                          7 	(obj:0)
one.thingy.devices[0].thingy.vs2_y                    4 	(obj:0)
$_172__7_x                                         -9 	(obj:0)
$_172__7_y                                          9 	(obj:0)
one.thingy.devices[0].thingy.vs2_z                    7 	(obj:0)
$_30__7_x                                          -3 	(obj:0)
$_162__7_x                                         -9 	(obj:0)
$_162__7_y                                          9 	(obj:0)
$_162__7_z                                         -6 	(obj:0)
$_30__7_y                                           9 	(obj:0)
$_30__7_z                                           2 	(obj:0)
one.thingy.devices[2].thingy.vp2_x                   -9 	(obj:0)
one.thingy.devices[2].thingy.vp2_y                    5 	(obj:0)
one.thingy.devices[2].thingy.vp2_z                   -2 	(obj:0)
one.thingy.devices[3].thingy.vs2_x                   -9 	(obj:0)
$_211__7_x                                         -9 	(obj:0)
$_205__7_x                                         -9 	(obj:0)
$_205__7_y                                         -9 	(obj:0)
$_205__7_z                                         -9 	(obj:0)
one.thingy.devices[2].thingy.v6_x                   -9 	(obj:0)
one.thingy.devices[2].thingy.v6_y                   -2 	(obj:0)
$_199__7_x                                         -9 	(obj:0)
$_199__7_y                                          5 	(obj:0)
$_199__7_z                                          5 	(obj:0)
one.thingy.devices[2].thingy.v6_z                   -5 	(obj:0)
one.ctrl_a[9].flush_x                              -9 	(obj:0)
$_254__7_x                                         -9 	(obj:0)
$_254__7_y                                          1 	(obj:0)
$_254__7_z                                          2 	(obj:0)
one.ctrl_a[9].flush_y                               5 	(obj:0)
$_38__7_x                                          -3 	(obj:0)
$_252__7_x                                         -5 	(obj:0)
$_252__7_y                                          9 	(obj:0)
$_38__7_y                                           9 	(obj:0)
$_38__7_z                                          -1 	(obj:0)
one.thingy.devices[3].thingy.vp2_x                   -9 	(obj:0)
one.thingy.devices[3].thingy.vp2_y                    7 	(obj:0)
one.thingy.devices[3].thingy.vp2_z                   -4 	(obj:0)
one.ctrl_a[9].flush_z                               3 	(obj:0)
$_211__7_y                                          6 	(obj:0)
$_42__7_x                                          -9 	(obj:0)
$_42__7_y                                           9 	(obj:0)
$_42__7_z                                           2 	(obj:0)
$_202__7_x                                         -9 	(obj:0)
$_202__7_y                                          6 	(obj:0)
one.ctrl_s[0].hole_x                               -9 	(obj:0)
one.ctrl_s[0].hole_y                                9 	(obj:0)
one.ctrl_s[0].hole_z                               -2 	(obj:0)
$_202__7_z                                          7 	(obj:0)
$_211__7_z                                          4 	(obj:0)
$_158__7_x                                         -5 	(obj:0)
$_158__7_y                                          9 	(obj:0)
$_158__7_z                                          9 	(obj:0)
$_183__7_x                                         -6 	(obj:0)
$_55__7_x                                          -9 	(obj:0)
one.thingy.devices[0].thingy.v5_x                   -9 	(obj:0)
one.thingy.devices[0].thingy.v5_y                   -2 	(obj:0)
one.thingy.devices[0].thingy.v5_z                   -1 	(obj:0)
$_55__7_y                                          -9 	(obj:0)
$_55__7_z                                         -12 	(obj:0)
$_165__7_x                                         -9 	(obj:0)
$_165__7_y                                         -4 	(obj:0)
$_165__7_z                                         -1 	(obj:0)
$_183__7_y                                          9 	(obj:0)
$_183__7_z                                          1 	(obj:0)
one.thingy.devices[1].thingy.column_lower_x                   -8 	(obj:0)
one.thingy.devices[1].thingy.column_lower_y                    9 	(obj:0)
one.thingy.devices[1].thingy.column_lower_z                    1 	(obj:0)
$_161__7_x                                         -9 	(obj:0)
$_161__7_y                                          1 	(obj:0)
one.thingy.devices[2].thingy.v5_x                   -9 	(obj:0)
one.thingy.devices[2].thingy.v5_y                   -1 	(obj:0)
one.thingy.devices[2].thingy.v5_z                   -9 	(obj:0)
$_161__7_z                                          3 	(obj:0)
one.thingy.devices[3].thingy.vs2_y                    6 	(obj:0)
$_163__7_x                                         -4 	(obj:0)
$_163__7_y                                         -9 	(obj:0)
$_163__7_z                                          3 	(obj:0)
one.thingy.devices[3].thingy.vs2_z                   -1 	(obj:0)
$_246__7_x                                         -9 	(obj:0)
one.thingy.devices[1].thingy.v6_x                   -9 	(obj:0)
one.thingy.devices[1].thingy.v6_y                   -1 	(obj:0)
one.thingy.devices[1].thingy.v6_z                   -1 	(obj:0)
$_246__7_y                                         -2 	(obj:0)
$_246__7_z                                         -4 	(obj:0)
one.thingy.devices[0].thingy.vs3_x                   -6 	(obj:0)
one.thingy.devices[0].thingy.vs3_y                    9 	(obj:0)
one.thingy.devices[0].thingy.vs3_z                    6 	(obj:0)
one.thingy.devices[3].thingy.v6_x                   -9 	(obj:0)
one.thingy.devices[3].thingy.v6_y                   -1 	(obj:0)
one.thingy.devices[2].thingy.column_lower_x                   -5 	(obj:0)
one.thingy.devices[2].thingy.column_lower_y                    9 	(obj:0)
one.thingy.devices[2].thingy.column_lower_z                   -1 	(obj:0)
$_60__7_x                                          -1 	(obj:0)
$_60__7_y                                           9 	(obj:0)
$_52__7_x                                          -1 	(obj:0)
$_52__7_y                                           9 	(obj:0)
$_52__7_z                                          -9 	(obj:0)
$_60__7_z                                          -4 	(obj:0)
one.thingy.devices[3].thingy.v6_z                   -8 	(obj:0)
$_53__7_x                                          -4 	(obj:0)
$_53__7_y                                          -9 	(obj:0)
$_53__7_z                                          -4 	(obj:0)
$_164__7_x                                         -3 	(obj:0)
one.thingy.devices[1].thingy.vs2_x                   -9 	(obj:0)
one.ctrl_a[9].hole_x                               -9 	(obj:0)
one.ctrl_a[9].hole_y                                8 	(obj:0)
one.ctrl_a[9].hole_z                               11 	(obj:0)
one.thingy.devices[1].thingy.vs2_y                    7 	(obj:0)
one.thingy.devices[1].thingy.vs2_z                    7 	(obj:0)
$_204__7_x                                         -9 	(obj:0)
$_204__7_y                                         -9 	(obj:0)
$_204__7_z                                         -3 	(obj:0)
$_164__7_y                                         -9 	(obj:0)
$_213__7_x                                         -1 	(obj:0)
one.thingy.devices[0].thingy.vp2_x                   -9 	(obj:0)
one.thingy.devices[0].thingy.vp2_y                    5 	(obj:0)
one.thingy.devices[0].thingy.vp2_z                    4 	(obj:0)
$_63__7_x                                          -9 	(obj:0)
$_63__7_y                                           9 	(obj:0)
$_54__7_x                                          -9 	(obj:0)
$_54__7_y                                          -1 	(obj:0)
$_54__7_z                                          -4 	(obj:0)
$_63__7_z                                           5 	(obj:0)
$_213__7_y                                          9 	(obj:0)
one.ctrl_s[0].flush_x                              -9 	(obj:0)
one.ctrl_s[0].flush_y                               9 	(obj:0)
one.ctrl_s[0].flush_z                              -9 	(obj:0)
$_213__7_z                                          6 	(obj:0)
$_236__7_x                                         -9 	(obj:0)
$_238__7_x                                         -9 	(obj:0)
$_238__7_y                                         -3 	(obj:0)
$_238__7_z                                        -10 	(obj:0)
$_236__7_y                                          8 	(obj:0)
$_236__7_z                                         -1 	(obj:0)
$_64__7_x                                          -9 	(obj:0)
$_64__7_y                                           6 	(obj:0)
$_64__7_z                                          -4 	(obj:0)
$_164__7_z                                         -1 	(obj:0)
$_203__7_z                                         -7 	(obj:0)
$_243__7_x                                         -9 	(obj:0)
$_243__7_y                                          1 	(obj:0)
$_243__7_z                                         -1 	(obj:0)
one.ctrl_a[10].hole_x                              -9 	(obj:0)
one.ctrl_a[10].hole_y                               7 	(obj:0)
one.thingy.devices[2].thingy.vs3_x                   -9 	(obj:0)
one.thingy.devices[2].thingy.vs3_y                    9 	(obj:0)
one.thingy.devices[2].thingy.vs3_z                    1 	(obj:0)
one.ctrl_a[10].hole_z                               5 	(obj:0)
one.ctrl_a[10].flush_x                             -9 	(obj:0)
one.ctrl_a[4].hole_x                               -9 	(obj:0)
one.ctrl_a[4].hole_y                               -3 	(obj:0)
one.ctrl_a[4].hole_z                               -1 	(obj:0)
one.ctrl_a[10].flush_y                              5 	(obj:0)
$_170__7_x                                         -9 	(obj:0)
$_154__7_x                                         -8 	(obj:0)
$_154__7_y                                          9 	(obj:0)
$_154__7_z                                         -6 	(obj:0)
$_170__7_y                                          5 	(obj:0)
$_170__7_z                                          7 	(obj:0)
one.thingy.devices[3].thingy.v5_x                   -9 	(obj:0)
one.thingy.devices[3].thingy.v5_y                   -1 	(obj:0)
one.thingy.devices[3].thingy.v5_z                  -12 	(obj:0)
one.ctrl_a[10].flush_z                             -3 	(obj:0)
$_203__7_x                                         -9 	(obj:0)
$_206__7_x                                         -9 	(obj:0)
$_206__7_y                                         -4 	(obj:0)
$_206__7_z                                         -5 	(obj:0)
$_156__7_x                                         -1 	(obj:0)
$_156__7_y                                         -9 	(obj:0)
$_247__7_x                                         -9 	(obj:0)
$_247__7_y                                         -5 	(obj:0)
$_247__7_z                                         -9 	(obj:0)
$_156__7_z                                         -1 	(obj:0)
one.thingy.devices[1].thingy.vp2_x                   -9 	(obj:0)
one.thingy.devices[0].thingy.column_lower_x                   -8 	(obj:0)
one.thingy.devices[0].thingy.column_lower_y                    9 	(obj:0)
one.thingy.devices[0].thingy.column_lower_z                    2 	(obj:0)
one.ctrl_a[4].flush_x                              -9 	(obj:0)
$_245__7_x                                         -9 	(obj:0)
$_31__7_x                                          -9 	(obj:0)
$_31__7_y                                          -9 	(obj:0)
$_31__7_z                                          -1 	(obj:0)
$_245__7_y                                         -9 	(obj:0)
$_245__7_z                                         -4 	(obj:0)
